122 5
10 10 10 10 10 

0 0 0 0 0 0 1 2 
0 0 0 0 0 0 2 3 6 
5 0 1 0 0 0 1 4 
9 0 7 0 0 0 2 10 5 
2 0 6 0 0 0 1 7 
7 0 7 0 0 0 1 7 
6 0 5 0 0 0 1 8 
4 0 8 0 0 0 2 12 9 
5 0 2 0 0 0 1 11 
10 0 2 0 0 0 1 11 
8 0 8 0 0 0 1 13 
1 0 4 0 0 0 1 13 
0 0 0 0 0 0 2 14 26 
0 0 0 0 0 0 2 15 18 
7 1 0 0 0 0 4 23 20 16 97 
9 4 0 0 0 0 1 17 
9 9 0 0 0 0 1 19 
9 6 0 0 0 0 1 19 
9 3 0 0 0 0 1 21 
10 6 0 0 0 0 1 21 
1 5 0 0 0 0 1 22 
8 4 0 0 0 0 1 24 
5 5 0 0 0 0 1 24 
9 7 0 0 0 0 1 25 
0 0 0 0 0 0 1 38 
0 0 0 0 0 0 1 27 
3 0 0 1 0 0 2 29 28 
1 0 0 5 0 0 1 30 
8 0 0 6 0 0 1 30 
3 0 0 8 0 0 1 31 
3 0 0 6 0 0 2 33 32 
3 0 0 7 0 0 3 35 34 42 
7 0 0 6 0 0 1 34 
7 0 0 5 0 0 1 36 
4 0 0 4 0 0 1 36 
9 0 0 2 0 0 1 37 
0 0 0 0 0 0 1 38 
0 0 0 0 0 0 5 39 51 63 75 87 
0 0 0 0 0 0 3 40 42 53 
1 0 0 0 2 0 1 41 
10 0 0 0 9 0 2 46 43 
5 0 0 0 10 0 2 46 45 
9 0 0 0 3 0 1 44 
7 0 0 0 5 0 1 45 
9 0 0 0 2 0 2 49 47 
2 0 0 0 7 0 1 47 
4 0 0 0 3 0 1 48 
3 0 0 0 4 0 1 50 
7 0 0 0 5 0 1 50 
0 0 0 0 0 0 1 99 
0 0 0 0 0 0 1 52 
8 0 0 0 0 1 2 54 53 
3 0 0 0 0 10 2 56 55 
8 0 0 0 0 6 1 55 
9 0 0 0 0 3 1 57 
5 0 0 0 0 4 1 57 
9 0 0 0 0 5 2 59 58 
4 0 0 0 0 5 1 60 
8 0 0 0 0 5 1 60 
5 0 0 0 0 6 1 61 
2 0 0 0 0 5 1 62 
0 0 0 0 0 0 1 99 
0 0 0 0 0 0 2 64 67 
3 0 0 1 0 0 2 73 65 
7 0 0 7 0 0 1 66 
4 0 0 8 0 0 2 72 68 
2 0 0 4 0 0 2 72 69 
8 0 0 3 0 0 1 69 
8 0 0 6 0 0 1 70 
10 0 0 9 0 0 1 71 
2 0 0 5 0 0 1 74 
4 0 0 3 0 0 1 74 
10 0 0 4 0 0 1 74 
0 0 0 0 0 0 1 99 
0 0 0 0 0 0 2 76 77 
8 0 0 0 1 0 2 85 78 
8 0 0 0 7 0 2 85 80 
3 0 0 0 6 0 1 79 
10 0 0 0 5 0 1 80 
2 0 0 0 4 0 2 84 81 
9 0 0 0 6 0 1 82 
10 0 0 0 5 0 1 83 
2 0 0 0 8 0 1 86 
7 0 0 0 2 0 1 86 
3 0 0 0 6 0 1 86 
0 0 0 0 0 0 1 99 
0 0 0 0 0 0 2 88 95 
3 1 0 0 0 0 3 97 92 89 
9 5 0 0 0 0 1 90 
6 6 0 0 0 0 1 91 
10 4 0 0 0 0 1 93 
2 6 0 0 0 0 1 93 
3 6 0 0 0 0 1 94 
8 5 0 0 0 0 1 96 
4 7 0 0 0 0 1 96 
2 3 0 0 0 0 1 98 
2 7 0 0 0 0 1 98 
0 0 0 0 0 0 1 99 
0 0 0 0 0 0 1 100 
1 0 0 1 0 0 1 101 
6 0 0 5 0 0 2 105 102 
8 0 0 3 0 0 1 103 
3 0 0 9 0 0 2 106 104 
6 0 0 5 0 0 1 107 
7 0 0 4 0 0 1 106 
5 0 0 7 0 0 1 109 
4 0 0 4 0 0 1 108 
1 0 0 7 0 0 1 110 
2 0 0 5 0 0 1 110 
0 0 0 0 0 0 1 111 
0 0 0 0 0 0 2 112 117 
8 0 0 0 1 0 1 113 
9 0 0 0 7 0 1 114 
5 0 0 0 9 0 2 116 115 
4 0 0 0 6 0 1 118 
6 0 0 0 5 0 1 118 
1 0 0 0 6 0 1 118 
4 0 0 0 3 0 1 119 
7 0 0 0 4 0 2 121 120 
8 0 0 0 6 0 1 122 
3 0 0 0 3 0 1 122 
0 0 0 0 0 0 0 
